/* Objective function */
min: - 0.0054fpdi - 0.0054fpdo + 0.05apdi + 0.05apdo + 0.0002pi + 0.0002po - 0.5fsi - 0.5fso;

apdi = 0.0 hi + -0.0 li + 10.32321 ri + -0.01878 ci + -1.46351 si + 0.0 ti + 0.10871 fTempIi + 0.02004 ami + -115.01058;
asi = 0.0 hi + 0.0 li + -0.0 ri + 0.0 ci + 0.0 si + 0.0 ti + 0.0 fTempIi + 0.00023 ami + -0.01;
aTempOi = 0.0 hi + -0.0 li + 0.30133 ri + -0.1414 ci + -0.0394 si + 0.0 ti + 0.75856 fTempIi + -0.00068 ami + 6.85804;
fpdi = 0.0 hi + 0.0 li + 10.29483 ri + -36.82319 ci + -0.01752 si + 0.0 ti + -0.56749 fTempIi + 0.00029 ami + 288.70402;
fsi = 0.0 hi + 0.0 li + -1e-05 ri + -0.13485 ci + 0.0 si + 0.0 ti + 2e-05 fTempIi + -0.0 ami + 1.98443;
fTempOi = 0.0 hi + -0.0 li + -0.29912 ri + 0.14218 ci + 0.03899 si + 0.0 ti + 0.25755 fTempIi + -0.0006 ami + 9.49535;
pi = 0.0 hi + -0.0 li + 142.41458 ri + 4.39714 ci + -13.06333 si + -0.0 ti + -0.0 fTempIi + 0.0 ami + 618.49226;

apdo = 0.0 ho + 0.0 lo + 12.47778 ro + 0.02381 co + -2.24317 so + 0.0 to + 0.14993 fTempIo + 0.02841 amo + -183.15855;
aso = 0.0 ho + -0.0 lo + 0.0 ro + 0.0 co + 0.0 so + -0.0 to + 0.0 fTempIo + 0.00023 amo + -0.01;
aTempOo = 0.0 ho + 0.0 lo + -0.22703 ro + 0.14324 co + 0.04784 so + -0.0 to + 0.76626 fTempIo + 0.00076 amo + -1.23885;
fpdo = 0.0 ho + -0.0 lo + 7.48464 ro + -30.62235 co + 0.01978 so + 0.0 to + -0.5134 fTempIo + -0.00029 amo + 256.3317;
fso = 0.0 ho + -0.0 lo + 1e-05 ro + -0.11398 co + -0.0 so + 0.0 to + 3e-05 fTempIo + 0.0 amo + 1.80319;
fTempOo = 0.0 ho + 0.0 lo + 0.22437 ro + -0.14217 co + -0.04736 so + 0.0 to + 0.24206 fTempIo + 0.00068 amo + 13.0157;
po = 0.0 ho + 0.0 lo + 112.23333 ro + 3.58889 co + -9.7781 so + 0.0 to + -0.0 fTempIo + -0.0 amo + 399.08413;

/* Variable bounds */
aTempOi > 18.6;
1 =r6i + r8i + r10i + r12i + r14i;
ri =6r6i + 8r8i + 10r10i + 12r12i + 14r14i;
1 =s30i + s40i + s50i + s60i;
si =30s30i + 40s40i + 50s50i + 60s60i;
ti = 3;
apdi > 100;
apdi < 300;
asi > 0;
asi < 3;
aTempOi > 5;
aTempOi < 25;
fpdi > 100;
fpdi < 300;
fsi > 0;
fsi < 1.25;
fTempOi > 5;
fTempOi < 25;
pi > 0;
ri > 6;
ri < 14;
ci > 5;
ci < 60;
si > 25;
si < 60;
ti > 1;
ti < 3;
fTempIi > 5;
fTempIi < 25;

/* aTempOo < 11.4; */
1 =r6o + r8o + r10o + r12o + r14o;
ro =6r6o + 8r8o + 10r10o + 12r12o + 14r14o;
1 =s25o + s30o + s40o;
so =25s25o + 30s30o + 40s40o;
to = 2;
apdo > 100;
apdo < 300;
aso > 0;
aso < 3;
aTempOo > 5;
aTempOo < 25;
fpdo > 100;
fpdo < 300;
fso > 0;
fso < 1.25;
fTempOo > 5;
fTempOo < 25;
po > 0;
ro > 10;
ro < 14;
co > 6;
co < 60;
so > 25;
so < 60;
to > 1;
to < 3;
fTempIo > 5;
fTempIo < 25;
int hi,li,si,ti,ci,ri,ami;
int ho,lo,so,to,co,ro,amo;
bin s25i,s30i,s40i,s50i,s60i,r6i,r8i,r10i,r12i,r14i;
bin s25o,s30o,s40o,s50o,s60o,r6o,r8o,r10o,r12o,r14o;
